c Maximum weighted clique instances generated from exactcolors.
c cutoff: 3112295.
c A clique of value > scalef (3112295) defines an improving stable sets for coloring.
p edge 27 185
e 1 7
e 1 13
e 1 14
e 1 20
e 1 26
e 1 27
e 2 8
e 2 13
e 2 15
e 2 21
e 2 26
e 2 27
e 3 9
e 3 13
e 3 16
e 3 22
e 3 26
e 3 27
e 4 10
e 4 13
e 4 17
e 4 23
e 4 26
e 4 27
e 5 11
e 5 13
e 5 18
e 5 24
e 5 26
e 5 27
e 6 12
e 6 13
e 6 19
e 6 25
e 6 26
e 6 27
e 7 8
e 7 9
e 7 10
e 7 11
e 7 12
e 7 14
e 7 20
e 7 21
e 7 22
e 7 23
e 7 24
e 7 25
e 7 27
e 8 9
e 8 10
e 8 11
e 8 12
e 8 15
e 8 20
e 8 21
e 8 22
e 8 23
e 8 24
e 8 25
e 8 27
e 9 10
e 9 11
e 9 12
e 9 16
e 9 20
e 9 21
e 9 22
e 9 23
e 9 24
e 9 25
e 9 27
e 10 11
e 10 12
e 10 17
e 10 20
e 10 21
e 10 22
e 10 23
e 10 24
e 10 25
e 10 27
e 11 12
e 11 18
e 11 20
e 11 21
e 11 22
e 11 23
e 11 24
e 11 25
e 11 27
e 12 19
e 12 20
e 12 21
e 12 22
e 12 23
e 12 24
e 12 25
e 12 27
e 13 14
e 13 15
e 13 16
e 13 17
e 13 18
e 13 19
e 13 26
e 13 27
e 14 15
e 14 16
e 14 17
e 14 18
e 14 19
e 14 20
e 14 21
e 14 22
e 14 23
e 14 24
e 14 25
e 14 26
e 15 16
e 15 17
e 15 18
e 15 19
e 15 20
e 15 21
e 15 22
e 15 23
e 15 24
e 15 25
e 15 26
e 16 17
e 16 18
e 16 19
e 16 20
e 16 21
e 16 22
e 16 23
e 16 24
e 16 25
e 16 26
e 17 18
e 17 19
e 17 20
e 17 21
e 17 22
e 17 23
e 17 24
e 17 25
e 17 26
e 18 19
e 18 20
e 18 21
e 18 22
e 18 23
e 18 24
e 18 25
e 18 26
e 19 20
e 19 21
e 19 22
e 19 23
e 19 24
e 19 25
e 19 26
e 20 21
e 20 22
e 20 23
e 20 24
e 20 25
e 20 26
e 21 22
e 21 23
e 21 24
e 21 25
e 21 26
e 22 23
e 22 24
e 22 25
e 22 26
e 23 24
e 23 25
e 23 26
e 24 25
e 24 26
e 25 26
n 1 2172998
n 2 2172998
n 3 2172998
n 4 2172998
n 5 2172998
n 6 2172998
n 7 434599
n 8 434599
n 9 434599
n 10 434599
n 11 434599
n 12 434599
n 13 434599
n 14 420580
n 15 420580
n 16 420580
n 17 420580
n 18 420580
n 19 420580
n 20 84116
n 21 84116
n 22 84116
n 23 84116
n 24 84116
n 25 84116
n 26 84116
n 27 504696
